(set-info :source |printed by MathSAT|)
(declare-fun |!{$(in_main#0)<SIZE>}| () Int)
(declare-fun |!{$(in_main#0)<SIZE>}.next| () Int)
(declare-fun |!{$(in_main#0)<i>}| () Int)
(declare-fun |!{$(in_main#0)<i>}.next| () Int)
(declare-fun |!{$(in_main#0)<largest>}| () Int)
(declare-fun |!{$(in_main#0)<largest>}.next| () Int)
(declare-fun |!{$(in_main#0)<x>}| () Int)
(declare-fun |!{$(in_main#0)<x>}.next| () Int)
(declare-fun |!{$(in_main#0)<array.1>}| () (Array Int Int))
(declare-fun |!{$(in_main#0)<array.1>}.next| () (Array Int Int))
(declare-fun |!{$(in_main#0)<$(in___VERIFIER_nondet_int#0)<h#<__VERIFIER_nondet_int.return>>>}| () Int)
(declare-fun |!{$(in_main#0)<$(in___VERIFIER_nondet_int#1)<h#<__VERIFIER_nondet_int.return>>>}| () Int)
(declare-fun !pc () Int)
(declare-fun !pc.next () Int)
(declare-fun |%{$(in_main#0)<largest>}#1| () Int)
(declare-fun |%{$(in_main#0)<x>}#1| () Int)
(declare-fun |%{$(in_main#0)<array.1>}#1| () (Array Int Int))
(declare-fun |%{$(in_main#0)<largest>}#2| () Int)
(define-fun .def_33 () Int (! !pc :next !pc.next))
(define-fun .def_36 () Bool (! (= .def_33 2) :init true))
(define-fun .def_167 () Bool (= .def_33 28))
(define-fun .def_146 () Bool (= !pc.next 50))
(define-fun .def_170 () Bool (and .def_146 .def_167))
(define-fun .def_16 () (Array Int Int) (! |!{$(in_main#0)<array.1>}| :next |!{$(in_main#0)<array.1>}.next|))
(define-fun .def_154 () Int (select .def_16 0))
(define-fun .def_162 () Bool (= |!{$(in_main#0)<largest>}.next| .def_154))
(define-fun .def_160 () Bool (= |!{$(in_main#0)<i>}.next| 1))
(define-fun .def_8 () Int (! |!{$(in_main#0)<SIZE>}| :next |!{$(in_main#0)<SIZE>}.next|))
(define-fun .def_71 () Bool (= .def_8 |!{$(in_main#0)<SIZE>}.next|))
(define-fun .def_161 () Bool (and .def_71 .def_160))
(define-fun .def_163 () Bool (and .def_161 .def_162))
(define-fun .def_14 () Int (! |!{$(in_main#0)<x>}| :next |!{$(in_main#0)<x>}.next|))
(define-fun .def_77 () Bool (= .def_14 |!{$(in_main#0)<x>}.next|))
(define-fun .def_164 () Bool (and .def_77 .def_163))
(define-fun .def_79 () Bool (= .def_16 |!{$(in_main#0)<array.1>}.next|))
(define-fun .def_165 () Bool (and .def_79 .def_164))
(define-fun .def_10 () Int (! |!{$(in_main#0)<i>}| :next |!{$(in_main#0)<i>}.next|))
(define-fun .def_114 () Bool (<= .def_8 .def_10))
(define-fun .def_166 () Bool (and .def_114 .def_165))
(define-fun .def_171 () Bool (and .def_166 .def_170))
(define-fun .def_58 () Bool (= !pc.next 28))
(define-fun .def_168 () Bool (and .def_58 .def_167))
(define-fun .def_153 () (Array Int Int) (store .def_16 .def_10 |!{$(in_main#0)<$(in___VERIFIER_nondet_int#1)<h#<__VERIFIER_nondet_int.return>>>}|))
(define-fun .def_157 () Bool (= |!{$(in_main#0)<array.1>}.next| .def_153))
(define-fun .def_130 () Int (* (- 1) |!{$(in_main#0)<i>}.next|))
(define-fun .def_131 () Int (+ .def_10 .def_130))
(define-fun .def_132 () Bool (= .def_131 (- 1)))
(define-fun .def_133 () Bool (and .def_71 .def_132))
(define-fun .def_12 () Int (! |!{$(in_main#0)<largest>}| :next |!{$(in_main#0)<largest>}.next|))
(define-fun .def_75 () Bool (= .def_12 |!{$(in_main#0)<largest>}.next|))
(define-fun .def_155 () Bool (and .def_75 .def_133))
(define-fun .def_156 () Bool (and .def_77 .def_155))
(define-fun .def_158 () Bool (and .def_156 .def_157))
(define-fun .def_115 () Bool (not .def_114))
(define-fun .def_159 () Bool (and .def_115 .def_158))
(define-fun .def_169 () Bool (and .def_159 .def_168))
(define-fun .def_172 () Bool (or .def_169 .def_171))
(define-fun .def_145 () Bool (= .def_33 50))
(define-fun .def_103 () Bool (= !pc.next 74))
(define-fun .def_149 () Bool (and .def_103 .def_145))
(define-fun .def_140 () Bool (= |!{$(in_main#0)<x>}.next| 0))
(define-fun .def_73 () Bool (= .def_10 |!{$(in_main#0)<i>}.next|))
(define-fun .def_82 () Bool (and .def_71 .def_73))
(define-fun .def_83 () Bool (and .def_75 .def_82))
(define-fun .def_141 () Bool (and .def_83 .def_140))
(define-fun .def_142 () Bool (and .def_79 .def_141))
(define-fun .def_143 () Bool (and .def_114 .def_142))
(define-fun .def_150 () Bool (and .def_143 .def_149))
(define-fun .def_147 () Bool (and .def_145 .def_146))
(define-fun .def_134 () Bool (= |!{$(in_main#0)<largest>}.next| |%{$(in_main#0)<largest>}#2|))
(define-fun .def_135 () Bool (and .def_133 .def_134))
(define-fun .def_136 () Bool (and .def_77 .def_135))
(define-fun .def_137 () Bool (and .def_79 .def_136))
(define-fun .def_116 () Int (select .def_16 .def_10))
(define-fun .def_124 () Bool (= .def_116 |%{$(in_main#0)<largest>}#2|))
(define-fun .def_117 () Bool (<= .def_116 .def_12))
(define-fun .def_118 () Bool (not .def_117))
(define-fun .def_126 () Bool (and .def_118 .def_124))
(define-fun .def_123 () Bool (= .def_12 |%{$(in_main#0)<largest>}#2|))
(define-fun .def_125 () Bool (and .def_117 .def_123))
(define-fun .def_127 () Bool (or .def_125 .def_126))
(define-fun .def_138 () Bool (and .def_127 .def_137))
(define-fun .def_139 () Bool (and .def_115 .def_138))
(define-fun .def_148 () Bool (and .def_139 .def_147))
(define-fun .def_151 () Bool (or .def_148 .def_150))
(define-fun .def_107 () Bool (= !pc.next 0))
(define-fun .def_98 () Bool (= .def_33 74))
(define-fun .def_108 () Bool (and .def_98 .def_107))
(define-fun .def_61 () Bool (<= .def_8 .def_14))
(define-fun .def_92 () Bool (and .def_61 .def_71))
(define-fun .def_93 () Bool (and .def_73 .def_92))
(define-fun .def_94 () Bool (and .def_75 .def_93))
(define-fun .def_95 () Bool (and .def_77 .def_94))
(define-fun .def_96 () Bool (and .def_79 .def_95))
(define-fun .def_109 () Bool (and .def_96 .def_108))
(define-fun .def_104 () Bool (and .def_98 .def_103))
(define-fun .def_85 () Int (* (- 1) |!{$(in_main#0)<x>}.next|))
(define-fun .def_86 () Int (+ .def_14 .def_85))
(define-fun .def_87 () Bool (= .def_86 (- 1)))
(define-fun .def_88 () Bool (and .def_83 .def_87))
(define-fun .def_89 () Bool (and .def_79 .def_88))
(define-fun .def_63 () Int (select .def_16 .def_14))
(define-fun .def_64 () Bool (<= .def_63 .def_12))
(define-fun .def_65 () Int (ite .def_64 1 0))
(define-fun .def_66 () Bool (= .def_65 0))
(define-fun .def_67 () Bool (not .def_66))
(define-fun .def_90 () Bool (and .def_67 .def_89))
(define-fun .def_62 () Bool (not .def_61))
(define-fun .def_91 () Bool (and .def_62 .def_90))
(define-fun .def_105 () Bool (and .def_91 .def_104))
(define-fun .def_100 () Bool (= !pc.next 94))
(define-fun .def_101 () Bool (and .def_98 .def_100))
(define-fun .def_72 () Bool (and .def_66 .def_71))
(define-fun .def_74 () Bool (and .def_72 .def_73))
(define-fun .def_76 () Bool (and .def_74 .def_75))
(define-fun .def_78 () Bool (and .def_76 .def_77))
(define-fun .def_80 () Bool (and .def_78 .def_79))
(define-fun .def_81 () Bool (and .def_62 .def_80))
(define-fun .def_102 () Bool (and .def_81 .def_101))
(define-fun .def_106 () Bool (or .def_102 .def_105))
(define-fun .def_110 () Bool (or .def_106 .def_109))
(define-fun .def_59 () Bool (and .def_36 .def_58))
(define-fun .def_55 () Bool (= |!{$(in_main#0)<array.1>}.next| |%{$(in_main#0)<array.1>}#1|))
(define-fun .def_53 () Bool (= |!{$(in_main#0)<x>}.next| |%{$(in_main#0)<x>}#1|))
(define-fun .def_51 () Bool (= |!{$(in_main#0)<largest>}.next| |%{$(in_main#0)<largest>}#1|))
(define-fun .def_49 () Bool (= |!{$(in_main#0)<i>}.next| 0))
(define-fun .def_48 () Bool (= |!{$(in_main#0)<SIZE>}.next| |!{$(in_main#0)<$(in___VERIFIER_nondet_int#0)<h#<__VERIFIER_nondet_int.return>>>}|))
(define-fun .def_50 () Bool (and .def_48 .def_49))
(define-fun .def_52 () Bool (and .def_50 .def_51))
(define-fun .def_54 () Bool (and .def_52 .def_53))
(define-fun .def_56 () Bool (and .def_54 .def_55))
(define-fun .def_60 () Bool (and .def_56 .def_59))
(define-fun .def_111 () Bool (or .def_60 .def_110))
(define-fun .def_152 () Bool (or .def_111 .def_151))
(define-fun .def_173 () Bool (! (or .def_152 .def_172) :trans true))
(define-fun .def_112 () Bool (= .def_33 94))
(define-fun .def_174 () Bool (! (not .def_112) :invar-property 0 :invar-property-name ||))
(assert true)
